(written by ASE)

400 atoms
5 atom types

0.0      11.539999999999999  xlo xhi
0.0      11.539999999999999  ylo yhi
0.0                      35  zlo zhi

Atoms # atomic

     1   2      4.7483899999999997      2.6135899999999999      33.414900000000003
     2   2      9.7987599999999997                 11.0063      2.0029499999999998
     3   2      8.6260300000000001                 2.18316                 25.6694
     4   2      2.9297200000000001      8.3561099999999993                 9.39907
     5   2      9.8946299999999994      5.6541699999999997      25.762699999999999
     6   2      2.6558000000000002     0.67609900000000001      9.7245299999999997
     7   2                 5.95939                 10.9872                 25.7378
     8   2                0.120139      9.5346200000000003      29.751000000000001
     9   2      5.0948000000000002      8.2454900000000002      5.5893600000000001
    10   2                 3.92265                 10.5701                0.170378
    11   3      7.3641699999999997     0.66247599999999995                 23.7392
    12   3      6.1483400000000001      2.7214299999999998      29.578700000000001
    13   3      5.8251099999999996      8.5280000000000005                 24.0992
    14   3      10.340199999999999      8.1546699999999994      23.675999999999998
    15   3                 1.55166      6.9297700000000004      7.0052899999999996
    16   3      4.2663500000000001                 3.22709                   23.73
    17   3      6.1264200000000004      6.8464700000000001      33.959600000000002
    18   3      4.1497999999999999      8.2792399999999997                 29.7652
    19   3      10.244999999999999      1.8052299999999999      7.0279699999999998
    20   3                 9.70655     0.76785999999999999                   32.32
    21   4                 10.5756      1.1256999999999999      24.706099999999999
    22   4      4.4480199999999996      5.9273600000000002      6.7317799999999997
    23   4                 10.2677      9.8716699999999999      3.7664800000000001
    24   4      9.7164900000000003                 7.00732      4.6419199999999998
    25   4      9.7466500000000007      10.973599999999999      29.585699999999999
    26   4                 2.04819                 10.7622      1.5833600000000001
    27   4                 3.77807      7.8867099999999999     0.32604499999999997
    28   4      3.5849199999999999      1.0843400000000001                  4.5427
    29   4      8.4592799999999997      6.9473500000000001      26.742699999999999
    30   4     0.49365700000000001      1.1726099999999999      10.539400000000001
    31   4      9.8207199999999997                 3.21455      9.9857700000000005
    32   4      8.0023700000000009      5.8554000000000004      2.7573799999999999
    33   4     0.19273699999999999      9.8002699999999994                 32.5413
    34   4      8.8716799999999996      7.3420399999999999                0.436502
    35   4                 1.92771      1.9270799999999999      2.3042600000000002
    36   4     0.18681500000000001      8.8174600000000005      27.621200000000002
    37   4     0.41208299999999998      6.1965300000000001      32.000900000000001
    38   4      7.0107100000000004      7.1515000000000004      5.8541299999999996
    39   4                 3.08704                 7.67605                 4.51999
    40   4      8.0691400000000009      5.1188799999999999                 31.4056
    41   4      3.1735199999999999      6.6901999999999999                 25.4925
    42   4      3.8426100000000001     0.77862399999999998      28.785699999999999
    43   4                 2.49105      7.8833700000000002      32.424199999999999
    44   4      4.5716400000000004                 10.7187                  31.448
    45   4      6.4144199999999998      2.6242999999999999      8.7818299999999994
    46   4                 11.3629      3.5310800000000002      3.1011899999999999
    47   4      7.1530199999999997      4.5873200000000001      10.390599999999999
    48   4      4.0656299999999996      5.2354599999999998      30.474799999999998
    49   4      7.4020200000000003      8.1553199999999997      31.234300000000001
    50   4                 11.4503      9.6691800000000008     0.49469999999999997
    51   4                 1.63202                 4.14703               0.0536207
    52   4      3.9022999999999999      9.3210800000000003      7.2138099999999996
    53   4      5.8760000000000003      7.9792899999999998                 3.23584
    54   4      2.5154100000000001      9.2601499999999994      26.017900000000001
    55   4      7.6191500000000003      9.0372900000000005      7.8774899999999999
    56   4      5.9340700000000002      2.2082299999999999                  26.491
    57   4                 9.53613      1.5354699999999999                 3.24288
    58   4                 2.28972      2.6938900000000001      27.747199999999999
    59   4      6.7407300000000001                0.450797      32.911999999999999
    60   4      7.9839000000000002      9.5846599999999995      1.6632100000000001
    61   4               0.0445435                 6.28775      2.9205399999999999
    62   4      9.8530800000000003                 5.53627      33.271700000000003
    63   4      3.5821100000000001      3.6413000000000002                 5.54359
    64   4                 2.89392                 5.57789                 1.87127
    65   4      7.1337599999999997                 10.1859                 29.6965
    66   4      10.182600000000001      9.9938400000000005                 10.1046
    67   4      1.9562600000000001                 10.2882      4.3066000000000004
    68   4      6.1017700000000001      10.050000000000001                 34.6096
    69   4      7.7147300000000003      4.1016500000000002      6.8102200000000002
    70   4                 10.2347      6.3358499999999998      9.3634199999999996
    71   4      4.5361099999999999      6.7084599999999996      9.6824600000000007
    72   4                 1.07481                 7.56067      10.470700000000001
    73   4      6.6799499999999998      9.7776700000000005                 10.2073
    74   4      8.0835899999999992     0.65653399999999995      10.103199999999999
    75   4      8.6825700000000001                 1.31281      27.690799999999999
    76   4      3.9134600000000002      10.117699999999999                 10.5924
    77   4                0.492649      5.3889100000000001                 24.9758
    78   4                 10.1935                  3.5461      26.873000000000001
    79   4      11.435700000000001      6.5579099999999997     0.30137799999999998
    80   4      11.344900000000001      2.2903799999999999                 29.3447
    81   4      10.263299999999999      8.5706100000000003      7.5578500000000002
    82   4      3.4384899999999998      4.6391600000000004      33.066499999999998
    83   4                 1.19278                0.124325      30.327500000000001
    84   4                 1.26423      3.2639499999999999      31.451599999999999
    85   4     0.52199899999999999                 3.86131      5.5435699999999999
    86   4      7.6594300000000004      10.107900000000001      27.003799999999998
    87   4      4.2884200000000003      2.1465800000000002                 10.2461
    88   4                 11.3666                 10.5943      6.0737399999999999
    89   4      4.5509300000000001     0.37618200000000002      7.8334200000000003
    90   4      3.4113799999999999                 11.3819                 24.7699
    91   4                 11.4282                 6.16214      27.505500000000001
    92   4                 9.71509      3.8734299999999999     0.48374499999999998
    93   4                 6.28484      5.4904599999999997      24.599900000000002
    94   4                 10.3195      7.3001300000000002      29.986699999999999
    95   4                 1.26834      4.4620600000000001      8.6338600000000003
    96   4      1.4149099999999999      10.260400000000001      8.9226399999999995
    97   4      8.8481199999999998      8.9883199999999999      33.147100000000002
    98   4      6.5863800000000001                  1.5021      1.7680100000000001
    99   4      4.8501500000000002                 9.99282      27.352399999999999
   100   4      8.7618100000000005      4.0850299999999997      24.560600000000001
   101   4      3.8096700000000001                  1.7947      31.661999999999999
   102   4      6.4680900000000001      6.1223400000000003      28.488299999999999
   103   4      2.6514899999999999                 11.0059      33.456499999999998
   104   4      5.9439399999999996    0.057499599999999998      4.3389199999999999
   105   4     0.96348199999999995                 1.63693      33.693100000000001
   106   4      6.6303700000000001      4.0007200000000003                0.507239
   107   4      8.8505099999999999                 1.00376                0.264629
   108   4                 10.0985      10.171900000000001      25.991199999999999
   109   4                 1.61659                 1.84012      24.943999999999999
   110   4      7.3556499999999998      3.3914200000000001      3.9635899999999999
   111   4      1.7887599999999999                 1.74126      7.6310500000000001
   112   4                 7.36266  -0.0090657099999999994      6.7950200000000001
   113   4      6.6914899999999999      3.3141099999999999      32.993899999999996
   114   4                 4.34504      1.4416500000000001                0.270011
   115   4      2.3176600000000001      5.3839300000000003      28.151700000000002
   116   4      7.8787799999999999      7.1379599999999996      10.475300000000001
   117   4      3.1819299999999999      4.8089599999999999      10.626799999999999
   118   4                 10.1729      5.4473000000000003      6.7520800000000003
   119   4      9.2121700000000004      4.0400600000000004      29.324000000000002
   120   4                  4.7355      4.0696500000000002      2.9691000000000001
   121   5      11.444900000000001      1.4091400000000001      25.003599999999999
   122   5      4.8165500000000003      5.8780900000000003      7.6643800000000004
   123   5      10.614800000000001                 10.1212      4.6278800000000002
   124   5      9.5826700000000002                 6.46183      5.4678599999999999
   125   5      8.8439999999999994                 10.6113                 29.8201
   126   5      1.3809100000000001      10.183999999999999      1.1915199999999999
   127   5      3.3827199999999999      7.0631599999999999     0.89729700000000001
   128   5      4.4945000000000004     0.68091299999999999      4.3873499999999996
   129   5                 7.75563      6.7966199999999999      27.431999999999999
   130   5    -0.18421100000000001      1.8449500000000001                 10.1778
   131   5      10.328200000000001      3.9475099999999999      9.6306100000000008
   132   5      8.1798400000000004      6.2818800000000001      1.8757999999999999
   133   5     0.99676399999999998      9.2492999999999999      32.660699999999999
   134   5                 7.98895                   7.077      35.082000000000001
   135   5      2.5430999999999999      1.8617300000000001                  3.1532
   136   5                 11.1251      9.2261199999999999                 26.9819
   137   5      1.2053499999999999      6.8298699999999997      32.247100000000003
   138   5      7.1868299999999996      6.2434099999999999      6.2383699999999997
   139   5                 2.61808      8.5920199999999998      4.3404199999999999
   140   5                 7.52881      5.9813299999999998                 31.3019
   141   5      3.1589499999999999      6.1693499999999997      26.338200000000001
   142   5      4.0046999999999997      11.583500000000001                 28.1661
   143   5      2.8069999999999999      7.8413599999999999      33.372700000000002
   144   5                 4.00692      11.276899999999999                 30.8766
   145   5      7.1170600000000004      2.0993900000000001      9.1259800000000002
   146   5     0.19636600000000001      3.7065600000000001      4.0003799999999998
   147   5      6.7164599999999997      4.4501900000000001                 11.3049
   148   5      4.2388000000000003                  6.2279      30.393899999999999
   149   5                  7.8914      8.4906500000000005      32.069899999999997
   150   5               -0.107614                 8.62012     0.56645100000000004
   151   5      2.0524200000000001      4.7487300000000001     0.74011199999999999
   152   5      4.1862599999999999                 10.2432      7.4013600000000004
   153   5      6.2087899999999996                 6.98855                  3.2418
   154   5      2.6387900000000002      8.4732599999999998      25.489000000000001
   155   5      7.2827999999999999      8.3110700000000008      7.2522700000000002
   156   5      5.3424100000000001      2.7870200000000001      25.930099999999999
   157   5      9.6233900000000006      1.0680700000000001      4.0916100000000002
   158   5      3.0275099999999999      2.0661100000000001      28.044799999999999
   159   5      7.5699899999999998     0.39350299999999999      32.345999999999997
   160   5      7.3936900000000003      9.1913099999999996      2.2908200000000001
   161   5      11.436299999999999      6.4438500000000003      1.9951399999999999
   162   5      10.765499999999999      5.6905900000000003      32.795200000000001
   163   5      3.8961999999999999      4.3837700000000002                   6.069
   164   5      2.2665500000000001      5.8324699999999998      2.6230099999999998
   165   5      7.3751800000000003                 9.37134                  30.314
   166   5      10.001099999999999      9.6656700000000004                 11.0457
   167   5                 1.05494      10.372199999999999      4.8438999999999997
   168   5      6.5503900000000002                 10.7121      33.974499999999999
   169   5      7.6712999999999996                 3.59239      5.9425699999999999
   170   5      10.976100000000001      6.7441899999999997      9.8448399999999996
   171   5      4.2043600000000003      5.8389699999999998                 10.0253
   172   5     0.72017699999999996      8.0498899999999995                 11.2737
   173   5      6.8305100000000003      8.9118300000000001                 10.7196
   174   5      7.7465900000000003    -0.22214400000000001      10.462300000000001
   175   5      9.3648199999999999      1.0467900000000001      28.349299999999999
   176   5      3.7725599999999999                  10.167      11.557600000000001
   177   5      1.1764600000000001      6.0045900000000003      25.354500000000002
   178   5                 11.1629      3.6537099999999998                 26.9207
   179   5     0.33716200000000002      5.6827800000000002      35.018099999999997
   180   5                   10.65      2.9690699999999999      29.555399999999999
   181   5      10.643700000000001                 8.35548      8.4204600000000003
   182   5      3.5364499999999999      4.6872800000000003      32.027500000000003
   183   5     0.72001899999999996     0.98729299999999998      30.028300000000002
   184   5     0.90162100000000001      2.7222499999999998      32.236400000000003
   185   5     0.18611800000000001      4.7669100000000002      5.8408499999999997
   186   5      8.5942799999999995      10.272399999999999                 26.8095
   187   5      4.6598100000000002      1.9494400000000001      11.113099999999999
   188   5                 11.0627      9.8846399999999992      6.6335100000000002
   189   5      5.4871400000000001     0.56829700000000005      8.0363199999999999
   190   5      2.8828999999999998                 10.5602                 25.1404
   191   5                 10.8172                 6.30504                 28.2273
   192   5      8.6659600000000001      3.9780700000000002     0.60136999999999996
   193   5      6.1130199999999997      6.4569099999999997                 24.6173
   194   5      9.4107099999999999      7.4444400000000002                 30.2804
   195   5      1.7823899999999999      4.2872199999999996      9.4083199999999998
   196   5      1.1429199999999999      10.319000000000001      7.9581499999999998
   197   5      9.7285299999999992      9.3906399999999994      33.021500000000003
   198   5      6.4200200000000001      2.4144199999999998                 1.55948
   199   5      5.2674500000000002      9.4800599999999999      28.081399999999999
   200   5      7.9091199999999997      4.4784800000000002                  24.378
   201   5      2.9647399999999999      2.2271000000000001                 31.5791
   202   5                 6.37263      5.1745400000000004      28.688500000000001
   203   5      2.2196099999999999     0.39906900000000001      33.527099999999997
   204   5                  6.4512     0.54939099999999996      3.6469399999999998
   205   5                0.233907                 1.01566      33.824399999999997
   206   5      6.2450700000000001      4.8635299999999999     0.71217200000000003
   207   5      9.3801400000000008      1.7954600000000001     0.43736700000000001
   208   5                 10.0543      9.6787700000000001                 25.1128
   209   5      2.2179500000000001      2.4719099999999998      24.480799999999999
   210   5      7.9245900000000002      4.0727799999999998      3.5408499999999998
   211   5      1.6515500000000001      2.6847799999999999      7.7777599999999998
   212   5      8.2495999999999992                0.430228      6.8490799999999998
   213   5      7.3196599999999998      2.5085899999999999      32.874099999999999
   214   5      3.7254900000000002                 1.82497     0.99247700000000005
   215   5                  2.1774      4.4119400000000004      28.036000000000001
   216   5      7.5697200000000002      6.2282599999999997      10.287800000000001
   217   5      3.0165899999999999                 4.72098                 11.5702
   218   5      10.351599999999999                 5.74587      7.7416299999999998
   219   5      8.7005300000000005      4.6854800000000001      30.012799999999999
   220   5      4.1640499999999996                 4.17544      3.7937400000000001
   221   5      10.681800000000001     0.87301399999999996      23.787199999999999
   222   5      3.5409000000000002      6.3164899999999999      6.8735200000000001
   223   5      10.142300000000001      8.9285099999999993                 3.98827
   224   5                 10.5151                 6.66228                  4.1273
   225   5      9.9062000000000001                 11.4627                  30.474
   226   5                 2.19564      10.469099999999999      2.5186999999999999
   227   5      4.5726300000000002      7.3910200000000001      34.832099999999997
   228   5      3.6588799999999999                 1.88652      5.1079999999999997
   229   5      8.4390300000000007      7.9149099999999999      26.660299999999999
   230   5                 11.5024     0.42715799999999998                 10.8628
   231   5      9.5276399999999999      2.7839499999999999      9.1626700000000003
   232   5      8.6979900000000008      6.2869900000000003      3.3761899999999998
   233   5     0.48086400000000001      10.708500000000001      32.362099999999998
   234   5                 8.60778      8.2091499999999993     0.89554800000000001
   235   5      1.6422099999999999     0.98942099999999999      2.2109200000000002
   236   5                 11.7559      7.8239299999999998                 27.3688
   237   5     0.79825699999999999      5.4399100000000002      31.604399999999998
   238   5      7.6789699999999996      7.3109000000000002      5.1261700000000001
   239   5                 2.45642      7.3613499999999998      5.1938899999999997
   240   5      8.7211999999999996      5.3281799999999997      32.165199999999999
   241   5                 3.80735      6.1690100000000001      24.926500000000001
   242   5      4.6804399999999999                 1.25467      28.995100000000001
   243   5      3.2595000000000001      7.8092699999999997      31.905000000000001
   244   5      4.5507099999999996      9.8738200000000003      30.906199999999998
   245   5      6.5010399999999997                 3.46475      9.4255399999999998
   246   5                0.615259      2.9809899999999998      2.7417899999999999
   247   5      8.0733899999999998      4.2056699999999996                  10.519
   248   5      4.7353800000000001      4.6523500000000002      30.043600000000001
   249   5      6.5440500000000004      7.8268300000000002      31.481999999999999
   250   5      11.566000000000001      9.9538100000000007      34.549500000000002
   251   5      2.2270400000000001      4.2028800000000004      34.215000000000003
   252   5                 3.09985      9.5100099999999994      6.6987800000000002
   253   5      4.9503500000000003                 7.85405      3.0097200000000002
   254   5                 1.70181      9.1280900000000003      26.513500000000001
   255   5      8.5702400000000001      8.7763500000000008      8.0370699999999999
   256   5      6.0056099999999999      2.6310500000000001      27.374099999999999
   257   5                 10.1675                 2.25163      3.4482400000000002
   258   5      2.3224900000000002                 2.64473      26.803999999999998
   259   5      6.0057600000000004     0.38646599999999998      32.217700000000001
   260   5      7.4177900000000001      9.9704099999999993     0.94575399999999998
   261   5              -0.0619223      5.2656000000000001      2.8809900000000002
   262   5      9.8706600000000009      4.7750399999999997      33.881500000000003
   263   5      2.6198000000000001      3.6052599999999999      5.6895800000000003
   264   5      3.6783600000000001      5.0570700000000004      2.3101799999999999
   265   5      6.1937300000000004                 10.3278                 30.0199
   266   5      9.4763900000000003                 10.5976                 9.83019
   267   5      2.4451999999999998      11.006399999999999      4.7691299999999996
   268   5      6.0431499999999998      9.2077299999999997      34.162300000000002
   269   5                 7.31257      3.5505200000000001      7.5090000000000003
   270   5      9.4008500000000002                  6.6597      9.8838799999999996
   271   5      5.3707799999999999      6.9360999999999997                 10.1915
   272   5      1.3260400000000001      6.7723300000000002      10.946099999999999
   273   5      7.0952799999999998      9.4967600000000001      9.2858800000000006
   274   5      8.5554799999999993                  1.1153      10.802099999999999
   275   5      7.8532799999999998     0.89269100000000001                 28.1736
   276   5      4.8570700000000002      10.220599999999999      10.466100000000001
   277   5     0.68664499999999995      5.5253399999999999      24.027899999999999
   278   5      9.8224900000000002      3.6940599999999999      27.822900000000001
   279   5                 10.5023      6.3858199999999998      35.145800000000001
   280   5     0.31441000000000002      2.5466799999999998      28.555900000000001
   281   5      10.787100000000001      7.9486699999999999      7.0213799999999997
   282   5      4.2356699999999998      5.2379100000000003      33.307899999999997
   283   5      2.0724100000000001     0.18518999999999999      29.800000000000001
   284   5     0.68676000000000004                 3.01336      30.682600000000001
   285   5                 11.4201      3.3088600000000001      5.9642299999999997
   286   5      7.6159999999999997                 10.2468                 28.0124
   287   5      5.0967500000000001      2.1617600000000001      9.6076200000000007
   288   5      10.888199999999999      11.485900000000001      6.4423599999999999
   289   5                 4.41601     0.99344600000000005      7.0465600000000004
   290   5      3.5786199999999999      11.190200000000001                 23.7468
   291   5                0.810473      5.8691899999999997                 27.7988
   292   5                  10.077      3.9901900000000001                 1.42893
   293   5      5.4653200000000002      5.0172100000000004                  24.384
   294   5      10.837899999999999      6.8983400000000001      30.688199999999998
   295   5      1.3981300000000001      5.3642000000000003      8.3106100000000005
   296   5     0.51847600000000005                 10.0321      9.3499199999999991
   297   5      9.0740800000000004      8.2355999999999998                 33.7423
   298   5      7.4039000000000001                 1.28677                 1.31637
   299   5                 3.99017      9.5159400000000005      27.103400000000001
   300   5      9.0357699999999994      3.8342999999999998                 23.6845
   301   5                 4.46645                 2.17265      31.058199999999999
   302   5      5.6915399999999998      6.6421799999999998      28.826799999999999
   303   5      3.4040400000000002                 11.1325      32.833399999999997
   304   5      6.5233499999999998     0.18668000000000001      5.1610699999999996
   305   5                 1.14347      2.1996799999999999      34.444000000000003
   306   5                 6.71516                 3.88863      34.498800000000003
   307   5      8.9587800000000009     0.87258400000000003      34.267200000000003
   308   5                 10.3996                 11.0901                 25.5687
   309   5      2.2067399999999999                 1.03701      24.997599999999998
   310   5      7.9618900000000004      2.6444800000000002                 3.65551
   311   5     0.89966000000000002                 1.43486                 7.29575
   312   5      7.4241900000000003                 10.5472      7.0270299999999999
   313   5      7.0922400000000003      3.9761899999999999      32.321599999999997
   314   5      5.1711799999999997                 1.21221     0.81676400000000005
   315   5                 2.79834      5.4561000000000002      29.023499999999999
   316   5      7.9696699999999998      7.1598300000000004      11.507400000000001
   317   5      3.5719400000000001      3.9052600000000002                 10.4588
   318   5      9.4726999999999997      4.8167200000000001      6.9435000000000002
   319   5      8.5073399999999992      3.3143400000000001      29.277200000000001
   320   5      5.5647700000000002                  3.8205      3.3815300000000001
   321   1                   11.43      5.9238200000000001                  13.321
   322   1      2.9220100000000002      5.9769800000000002      13.505000000000001
   323   1      11.440899999999999      8.8013600000000007                  13.445
   324   1      2.7396099999999999      8.7948500000000003                  13.512
   325   1                 1.47803      7.2622200000000001                  15.477
   326   1      4.3796400000000002      7.3031199999999998                  15.403
   327   1      1.4112199999999999      10.332000000000001                  15.398
   328   1      4.3393499999999996                 10.1633      15.486000000000001
   329   1    0.097467999999999999      5.8117400000000004                  17.541
   330   1      2.9713599999999998      5.9370000000000003      17.542999999999999
   331   1      11.527200000000001      8.7631599999999992      17.518999999999998
   332   1      2.8959299999999999      8.7966099999999994      17.451000000000001
   333   1      1.5102199999999999      7.3314500000000002                   19.48
   334   1                 4.40029      7.4208400000000001      19.542000000000002
   335   1                 1.44458      10.190899999999999      19.609000000000002
   336   1      4.3988500000000004      10.286899999999999                  19.523
   337   1     0.23187099999999999      5.9005299999999998      21.515999999999998
   338   1      3.1511900000000002      5.8660899999999998                  21.541
   339   1                0.122377      8.9801300000000008      21.620999999999999
   340   1                 2.97356      8.6977200000000003                  21.567
   341   1     0.14083399999999999                0.150391                  13.321
   342   1      2.9450500000000002                 0.14631      13.505000000000001
   343   1     0.17633699999999999      3.0937700000000001                  13.445
   344   1                 3.06847      2.9762300000000002                  13.512
   345   1                 1.51153                 1.61419                  15.477
   346   1                  4.5122                 1.48828                  15.403
   347   1                 1.41648      4.4985799999999996                  15.398
   348   1                 4.37026      4.4337799999999996      15.486000000000001
   349   1    0.088295799999999994     0.14610999999999999                  17.541
   350   1      2.9774500000000002    0.071657499999999999      17.542999999999999
   351   1                0.195436      2.9975900000000002      17.518999999999998
   352   1      3.1080800000000002      3.0158200000000002      17.451000000000001
   353   1                 1.65509                 1.63672                   19.48
   354   1      4.5932599999999999      1.6015900000000001      19.542000000000002
   355   1      1.5297499999999999      4.4842599999999999      19.609000000000002
   356   1      4.4831200000000004      4.4104299999999999                  19.523
   357   1     0.20688100000000001     0.19734499999999999      21.515999999999998
   358   1      2.9028499999999999      11.456300000000001                  21.541
   359   1    0.087865600000000002      3.1458900000000001      21.620999999999999
   360   1      2.9207700000000001      2.8843299999999998                  21.567
   361   1      5.7825800000000003      5.6823899999999998                  13.321
   362   1      8.6488200000000006      5.9132600000000002      13.505000000000001
   363   1      5.7888000000000002      8.7180099999999996                  13.445
   364   1      8.7467299999999994      8.7780000000000005                  13.512
   365   1      7.1253399999999996                   7.234                  15.477
   366   1                 10.2174      7.3418099999999997                  15.403
   367   1      7.1920599999999997                 10.2041                  15.398
   368   1      10.096299999999999      10.262700000000001      15.486000000000001
   369   1      5.8685200000000002                 5.90184                  17.541
   370   1      8.6380999999999997      5.8923199999999998      17.542999999999999
   371   1      5.7775800000000004      8.7577599999999993      17.518999999999998
   372   1      8.7337900000000008      8.8240800000000004      17.451000000000001
   373   1      7.3512399999999998      7.4169700000000001                   19.48
   374   1                 10.1267      7.4412099999999999      19.542000000000002
   375   1      7.2949700000000002                 10.2461      19.609000000000002
   376   1                 10.1258                 10.3263                  19.523
   377   1                 5.88978      5.9900099999999998      21.515999999999998
   378   1      8.6646099999999997      5.9182800000000002                  21.541
   379   1      5.8591300000000004      8.9592899999999993      21.620999999999999
   380   1      8.6334499999999998      8.7281899999999997                  21.567
   381   1      5.9823700000000004     0.12353600000000001                  13.321
   382   1      8.8611599999999999     0.19553499999999999      13.505000000000001
   383   1      5.8932099999999998      2.8011300000000001                  13.445
   384   1      8.7880400000000005      3.0299999999999998                  13.512
   385   1      7.3151400000000004                  1.5467                  15.477
   386   1      10.283099999999999                 1.57742                  15.403
   387   1      7.2520800000000003      4.3493599999999999                  15.398
   388   1                 10.1877      4.5030700000000001      15.486000000000001
   389   1      5.9283099999999997    0.017724199999999999                  17.541
   390   1      8.8193800000000007     0.17479900000000001      17.542999999999999
   391   1      5.9699900000000001                 3.01023      17.518999999999998
   392   1      8.8001900000000006      3.0685099999999998      17.451000000000001
   393   1                 7.40869                 1.56989                   19.48
   394   1                 10.2584                 1.76345      19.542000000000002
   395   1      7.3374800000000002      4.4455099999999996      19.609000000000002
   396   1      10.138199999999999      4.5701299999999998                  19.523
   397   1      5.9487300000000003                0.172072      21.515999999999998
   398   1                 8.91934      11.520300000000001                  21.541
   399   1      5.9533800000000001      3.0180799999999999      21.620999999999999
   400   1      8.9459199999999992      2.9108100000000001                  21.567

