#===============variable=============================
#=============thermostat=======================
variable nvt_dt            equal   0.0005
variable nve_dt            equal   0.0005
variable nvt_nsteps        equal   2000000
variable nve_nsteps        equal   10000000
variable thermo_nsteps     equal   2000
variable nve_thermo_nsteps equal   2000
variable coor_nsteps       equal   1
variable cutoff            equal   6.0
variable neigh_skin        equal   0   # skin for the save the calculation of pbc 
variable T_start           equal   330.0
variable T_end             equal   330.0
variable T_damp            equal   100*${nvt_dt}
variable seed              equal   99999
variable mass1             equal   196.97
variable mass2             equal   22.990
variable mass3             equal   35.450
variable mass4             equal   15.999
variable mass5             equal   1.008
variable input_structure   string  data.lmp
variable integerate        string  verlet  # integerate algorithm in MD simulation
variable poten_function    string  fireann
variable datatype          string  float  # optional float/double
variable e_x               equal   0.0
variable e_y               equal   0.0
variable e_z               equal   0.0285714285714286
#=======================comput rdf========================
variable compute_style     string  rdf
variable nbins_rdf         equal   63
# variable nve_dt            equal   0.001
# variable nve_nsteps        equal   10000
variable nevery            equal   5
variable nrepeat           equal   2000
variable nfreq             equal   10000

units           metal
# this command should be used prior to setting up a simulation box via the create_box or 
# read_data commands. Restart files also store this setting.
dimension       3          # simulation dimensions
#newton          off        # calculate the pair interaction on each processor
#processors      3  3  3           # processor on each dimension
boundary        p   p   p   # p/f/s period/non-period/shrink_warp
# This command must be used before a simulation is setup via a read_data, read_restart, 
# or create_box command.
atom_style      atomic      # properties to store and read
# The id and map keywords must be specified before a simulation box is defined; 
# other keywords can be specified any time.
#atom_modify     map yes   # non-zero atom IDs can be assigned to each atom.
#processors  1  1  1    # of processors in each dimension of 3d grid overlaying the simulation domain
read_data       ${input_structure}          # read data from the file 
mass 1 ${mass1}          # set mass for element 1
mass 2 ${mass2}          # set mass for element 2
mass 3 ${mass3}          # set mass for element 3
mass 4 ${mass4}          # set mass for element 4
mass 5 ${mass5}          # set mass for element 5
replicate  1  1  1

#neighbor ${neigh_skin} bin   #skin = extra distance beyond force cutoff;style = bin or nsq or multi
velocity all create ${T_start} ${seed}
pair_style ${poten_function}
pair_coeff * * ${cutoff} ${datatype} ${e_x} ${e_y} ${e_z}
group electrode type 1
group electrolyte type 2 3 4 5
compute electrodeTemp electrode temp
compute electrolyteTemp electrolyte temp
#dump 1 all atom ${coor_nsteps} dump.atom  #output the trajectories configurations
# used for thermalstat
   timestep ${nvt_dt}
   fix 1 electrolyte nvt temp ${T_start} ${T_end} ${T_damp}
   fix 2 electrode nvt temp 220.0 220.0 ${T_damp}
   # fix_modify 1 temp electrolyteTemp
   velocity electrode set NULL NULL 0.0
   fix 3 electrode setforce NULL NULL 0.0
   dump 1 all xyz ${thermo_nsteps} pre_traj.xyz
   thermo ${thermo_nsteps}
   # thermo_style  custom  step c_electrodeTemp c_electrolyteTemp temp
   run ${nvt_nsteps}
   unfix 1
   unfix 2
   unfix 3
   undump 1
 
reset_timestep 0
# used for calculate the rdf 
   timestep  ${nve_dt}
   fix 1 electrolyte nvt temp ${T_start} ${T_end} ${T_damp}
   fix 2 electrode nvt temp 220.0 220.0 ${T_damp}
   # fix_modify 1 temp electrolyteTemp
   velocity electrode set NULL NULL 0.0
   fix 3 electrode setforce NULL NULL 0.0
   dump 1 all xyz ${nve_thermo_nsteps} traj.xyz
   thermo ${thermo_nsteps}
   # thermo_style  custom  step c_electrodeTemp c_electrolyteTemp temp
   run ${nve_nsteps}
