# Automatic mesh
0
Gamma Monkhorst Pack
   1   1   1
0.000 0.000 0.000
  
